c cnf generated by mark.reason.ac.CompilerAce written by Mark Chavira
c
c Following are a few statistics:
c
c     Number of potentials               : 623
c     Number of constant potentials      : 22
c     Number of root potentials          : 408
c     Number of zero-one root potentials : 265
c     Number of literals                 : 2531
c
p cnf 956 1473
1 0
2 0
3 0
4 0
5 0
6 0
7 0
8 0
9 0
10 0
11 0
12 0
13 0
14 0
15 0
16 0
17 0
18 0
19 0
20 0
21 0
22 0
23 24 0
-24 -23 0
25 0
26 0
27 28 0
-28 -27 0
29 0
30 0
31 32 0
-32 -31 0
-32 0
33 34 0
-34 -33 0
-34 0
35 36 0
-36 -35 0
37 0
38 39 0
-39 -38 0
40 0
41 42 0
-42 -41 0
43 0
44 45 0
-45 -44 0
46 0
47 48 0
-48 -47 0
49 0
50 51 0
-51 -50 0
52 0
53 54 0
-54 -53 0
55 0
56 57 0
-57 -56 0
58 0
59 60 0
-60 -59 0
61 0
62 0
63 64 0
-64 -63 0
65 0
66 67 0
-67 -66 0
68 0
69 70 0
-70 -69 0
71 0
72 73 0
-73 -72 0
74 0
75 76 0
-76 -75 0
77 0
78 79 0
-79 -78 0
80 0
81 82 0
-82 -81 0
83 0
84 85 0
-85 -84 0
86 0
87 88 0
-88 -87 0
89 0
90 91 0
-91 -90 0
92 0
93 94 0
-94 -93 0
95 0
96 0
97 98 0
-98 -97 0
99 0
100 101 0
-101 -100 0
102 0
103 104 0
-104 -103 0
105 0
106 107 0
-107 -106 0
108 0
109 110 0
-110 -109 0
111 0
112 113 0
-113 -112 0
114 0
115 116 0
-116 -115 0
117 0
118 119 0
-119 -118 0
120 0
121 122 0
-122 -121 0
123 0
124 125 0
-125 -124 0
126 0
127 128 0
-128 -127 0
129 0
130 0
131 132 0
-132 -131 0
133 0
134 135 0
-135 -134 0
136 0
137 138 0
-138 -137 0
139 0
140 141 0
-141 -140 0
142 0
143 144 0
-144 -143 0
145 0
146 147 0
-147 -146 0
148 0
149 150 0
-150 -149 0
151 0
152 153 0
-153 -152 0
154 0
155 156 0
-156 -155 0
157 0
158 159 0
-159 -158 0
160 0
161 162 0
-162 -161 0
163 0
164 0
165 166 0
-166 -165 0
167 0
168 169 0
-169 -168 0
170 0
171 172 0
-172 -171 0
173 0
174 175 0
-175 -174 0
176 0
177 178 0
-178 -177 0
179 0
180 181 0
-181 -180 0
182 0
183 184 0
-184 -183 0
185 0
186 187 0
-187 -186 0
188 0
189 190 0
-190 -189 0
191 0
192 193 0
-193 -192 0
194 0
195 196 0
-196 -195 0
197 0
198 0
199 200 0
-200 -199 0
201 0
202 203 0
-203 -202 0
204 0
205 206 0
-206 -205 0
207 0
208 209 0
-209 -208 0
210 0
211 212 0
-212 -211 0
213 0
214 215 0
-215 -214 0
216 0
217 218 0
-218 -217 0
219 0
220 221 0
-221 -220 0
222 0
223 224 0
-224 -223 0
225 0
226 227 0
-227 -226 0
228 0
229 230 0
-230 -229 0
231 0
232 0
233 234 0
-234 -233 0
235 0
236 237 0
-237 -236 0
238 0
239 240 0
-240 -239 0
241 0
242 243 0
-243 -242 0
244 0
245 246 0
-246 -245 0
-246 0
247 248 0
-248 -247 0
-248 0
249 250 0
-250 -249 0
-249 0
251 252 0
-252 -251 0
-251 0
253 254 0
-254 -253 0
-253 0
255 256 0
-256 -255 0
-255 0
257 258 0
-258 -257 0
259 0
260 0
261 262 0
-262 -261 0
-261 0
263 264 0
-264 -263 0
-263 0
265 266 0
-266 -265 0
-265 0
267 268 0
-268 -267 0
-267 0
269 270 0
-270 -269 0
-269 0
271 272 0
-272 -271 0
-271 0
273 274 0
-274 -273 0
-273 0
275 276 0
-276 -275 0
-275 0
277 278 0
-278 -277 0
-277 0
279 280 0
-280 -279 0
-279 0
281 282 0
-282 -281 0
283 0
284 0
285 286 0
-286 -285 0
-285 0
287 288 0
-288 -287 0
-287 0
289 290 0
-290 -289 0
-289 0
291 292 0
-292 -291 0
-291 0
293 294 0
-294 -293 0
-293 0
295 296 0
-296 -295 0
-295 0
297 298 0
-298 -297 0
-297 0
299 300 0
-300 -299 0
-299 0
301 302 0
-302 -301 0
-301 0
303 304 0
-304 -303 0
-303 0
305 306 0
-306 -305 0
307 0
308 0
309 310 0
-310 -309 0
-309 0
311 312 0
-312 -311 0
-311 0
313 314 0
-314 -313 0
-313 0
315 316 0
-316 -315 0
-315 0
317 318 0
-318 -317 0
-317 0
319 320 0
-320 -319 0
-319 0
321 322 0
-322 -321 0
-321 0
323 324 0
-324 -323 0
-323 0
325 326 0
-326 -325 0
-325 0
327 328 0
-328 -327 0
-327 0
329 330 0
-330 -329 0
331 0
332 0
333 334 0
-334 -333 0
335 0
336 0
337 338 0
-338 -337 0
-337 0
339 340 0
-340 -339 0
-339 0
341 342 0
-342 -341 0
-341 0
343 344 0
-344 -343 0
-343 0
345 346 0
-346 -345 0
-345 0
347 348 0
-348 -347 0
-347 0
349 350 0
-350 -349 0
-349 0
351 352 0
-352 -351 0
-351 0
353 354 0
-354 -353 0
-353 0
355 356 0
-356 -355 0
-355 0
357 358 0
-358 -357 0
359 0
360 0
361 362 0
-362 -361 0
-361 0
363 364 0
-364 -363 0
-363 0
365 366 0
-366 -365 0
-365 0
367 368 0
-368 -367 0
-367 0
369 370 0
-370 -369 0
-369 0
371 372 0
-372 -371 0
-371 0
373 374 0
-374 -373 0
-373 0
375 376 0
-376 -375 0
-375 0
377 378 0
-378 -377 0
-377 0
379 380 0
-380 -379 0
-379 0
381 382 0
-382 -381 0
383 0
384 0
385 386 0
-386 -385 0
-385 0
387 388 0
-388 -387 0
-387 0
389 390 0
-390 -389 0
-389 0
391 392 0
-392 -391 0
-391 0
393 394 0
-394 -393 0
-393 0
395 396 0
-396 -395 0
-395 0
397 398 0
-398 -397 0
-397 0
399 400 0
-400 -399 0
-399 0
401 402 0
-402 -401 0
-401 0
403 404 0
-404 -403 0
-403 0
405 406 0
-406 -405 0
407 0
408 0
409 410 0
-410 -409 0
-409 0
411 412 0
-412 -411 0
-411 0
413 414 0
-414 -413 0
-413 0
415 416 0
-416 -415 0
-415 0
417 418 0
-418 -417 0
-417 0
419 420 0
-420 -419 0
-419 0
421 422 0
-422 -421 0
-421 0
423 424 0
-424 -423 0
-423 0
425 426 0
-426 -425 0
-425 0
427 428 0
-428 -427 0
-427 0
429 430 0
-430 -429 0
431 0
432 0
433 434 0
-434 -433 0
-433 0
435 436 0
-436 -435 0
-435 0
437 438 0
-438 -437 0
-437 0
439 440 0
-440 -439 0
-439 0
441 442 0
-442 -441 0
-441 0
443 444 0
-444 -443 0
-443 0
445 446 0
-446 -445 0
-445 0
447 448 0
-448 -447 0
-447 0
449 450 0
-450 -449 0
-449 0
451 452 0
-452 -451 0
-451 0
453 454 0
-454 -453 0
455 0
456 0
457 458 0
-458 -457 0
-457 0
459 460 0
-460 -459 0
-459 0
461 462 0
-462 -461 0
-461 0
463 464 0
-464 -463 0
-463 0
465 466 0
-466 -465 0
-465 0
467 468 0
-468 -467 0
-467 0
469 470 0
-470 -469 0
-469 0
471 472 0
-472 -471 0
-471 0
473 474 0
-474 -473 0
-473 0
475 476 0
-476 -475 0
-475 0
477 478 0
-478 -477 0
479 0
480 481 0
-481 -480 0
-480 0
482 483 0
-483 -482 0
-482 0
484 485 0
-485 -484 0
-484 0
486 487 0
-487 -486 0
-486 0
488 489 0
-489 -488 0
-488 0
490 491 0
-491 -490 0
-490 0
492 493 0
-493 -492 0
-492 0
494 495 0
-495 -494 0
-494 0
496 497 0
-497 -496 0
-496 0
498 499 0
-499 -498 0
-498 0
500 501 0
-501 -500 0
502 0
503 504 0
-504 -503 0
-503 0
505 506 0
-506 -505 0
-505 0
507 508 0
-508 -507 0
-507 0
509 510 0
-510 -509 0
-509 0
511 512 0
-512 -511 0
-511 0
513 514 0
-514 -513 0
-513 0
515 516 0
-516 -515 0
-515 0
517 518 0
-518 -517 0
-517 0
519 520 0
-520 -519 0
-519 0
521 522 0
-522 -521 0
-521 0
523 524 0
-524 -523 0
525 0
526 527 0
-527 -526 0
-526 0
528 529 0
-529 -528 0
-528 0
530 531 0
-531 -530 0
-530 0
532 533 0
-533 -532 0
-532 0
534 535 0
-535 -534 0
-534 0
536 537 0
-537 -536 0
-536 0
538 539 0
-539 -538 0
-538 0
540 541 0
-541 -540 0
-540 0
542 543 0
-543 -542 0
-542 0
544 545 0
-545 -544 0
-544 0
546 547 0
-547 -546 0
548 0
549 550 0
-550 -549 0
-549 0
551 552 0
-552 -551 0
-551 0
553 554 0
-554 -553 0
-553 0
555 556 0
-556 -555 0
-555 0
557 558 0
-558 -557 0
-557 0
559 560 0
-560 -559 0
-559 0
561 562 0
-562 -561 0
-561 0
563 564 0
-564 -563 0
-563 0
565 566 0
-566 -565 0
-565 0
567 568 0
-568 -567 0
-567 0
569 570 0
-570 -569 0
571 0
572 0
573 574 0
-574 -573 0
575 0
576 577 0
-577 -576 0
-576 0
578 579 0
-579 -578 0
-578 0
580 581 0
-581 -580 0
-580 0
582 583 0
-583 -582 0
-582 0
584 585 0
-585 -584 0
-584 0
586 587 0
-587 -586 0
-586 0
588 589 0
-589 -588 0
-588 0
590 591 0
-591 -590 0
-590 0
592 593 0
-593 -592 0
-592 0
594 595 0
-595 -594 0
-594 0
596 597 0
-597 -596 0
598 0
599 600 0
-600 -599 0
-599 0
601 602 0
-602 -601 0
-601 0
603 604 0
-604 -603 0
-603 0
605 606 0
-606 -605 0
-605 0
607 608 0
-608 -607 0
-607 0
609 610 0
-610 -609 0
-609 0
611 612 0
-612 -611 0
-611 0
613 614 0
-614 -613 0
-613 0
615 616 0
-616 -615 0
-615 0
617 618 0
-618 -617 0
-617 0
619 620 0
-620 -619 0
621 0
622 623 0
-623 -622 0
-622 0
624 625 0
-625 -624 0
-624 0
626 627 0
-627 -626 0
-626 0
628 629 0
-629 -628 0
-628 0
630 631 0
-631 -630 0
-630 0
632 633 0
-633 -632 0
-632 0
634 635 0
-635 -634 0
-634 0
636 637 0
-637 -636 0
-636 0
638 639 0
-639 -638 0
-638 0
640 641 0
-641 -640 0
-640 0
642 643 0
-643 -642 0
644 0
645 646 0
-646 -645 0
-645 0
647 648 0
-648 -647 0
-647 0
649 650 0
-650 -649 0
-649 0
651 652 0
-652 -651 0
-651 0
653 654 0
-654 -653 0
-653 0
655 656 0
-656 -655 0
-655 0
657 658 0
-658 -657 0
-657 0
659 660 0
-660 -659 0
-659 0
661 662 0
-662 -661 0
-661 0
663 664 0
-664 -663 0
-663 0
665 666 0
-666 -665 0
667 0
668 669 0
-669 -668 0
-668 0
670 671 0
-671 -670 0
-670 0
672 673 0
-673 -672 0
-672 0
674 675 0
-675 -674 0
-674 0
676 677 0
-677 -676 0
-676 0
678 679 0
-679 -678 0
-678 0
680 681 0
-681 -680 0
-680 0
682 683 0
-683 -682 0
-682 0
684 685 0
-685 -684 0
-684 0
686 687 0
-687 -686 0
-686 0
688 689 0
-689 -688 0
690 0
691 692 0
-692 -691 0
-691 0
693 694 0
-694 -693 0
-693 0
695 696 0
-696 -695 0
-695 0
697 698 0
-698 -697 0
-697 0
699 700 0
-700 -699 0
-699 0
701 702 0
-702 -701 0
-701 0
703 704 0
-704 -703 0
-703 0
705 706 0
-706 -705 0
-705 0
707 708 0
-708 -707 0
-707 0
709 710 0
-710 -709 0
-709 0
711 712 0
-712 -711 0
713 0
714 715 0
-715 -714 0
-714 0
716 717 0
-717 -716 0
-716 0
718 719 0
-719 -718 0
-718 0
720 721 0
-721 -720 0
-720 0
722 723 0
-723 -722 0
-722 0
724 725 0
-725 -724 0
-724 0
726 727 0
-727 -726 0
-726 0
728 729 0
-729 -728 0
-728 0
730 731 0
-731 -730 0
-730 0
732 733 0
-733 -732 0
-732 0
734 735 0
-735 -734 0
736 0
737 738 0
-738 -737 0
-737 0
739 740 0
-740 -739 0
-739 0
741 742 0
-742 -741 0
-741 0
743 744 0
-744 -743 0
-743 0
745 746 0
-746 -745 0
-745 0
747 748 0
-748 -747 0
-747 0
749 750 0
-750 -749 0
-749 0
751 752 0
-752 -751 0
-751 0
753 754 0
-754 -753 0
-753 0
755 756 0
-756 -755 0
-755 0
757 758 0
-758 -757 0
759 0
760 761 0
-761 -760 0
-760 0
762 763 0
-763 -762 0
-762 0
764 765 0
-765 -764 0
-764 0
766 767 0
-767 -766 0
-766 0
768 769 0
-769 -768 0
770 0
771 772 0
-772 -771 0
773 0
774 0
775 776 0
-776 -775 0
777 0
778 779 0
-779 -778 0
780 0
781 782 0
-782 -781 0
783 0
784 785 0
-785 -784 0
786 0
787 788 0
-788 -787 0
789 0
790 791 0
-791 -790 0
792 0
793 794 0
-794 -793 0
795 0
796 797 0
-797 -796 0
798 0
799 800 0
-800 -799 0
801 0
802 803 0
-803 -802 0
804 0
805 806 0
-806 -805 0
807 0
808 0
809 810 0
-810 -809 0
811 0
812 813 0
-813 -812 0
814 0
815 816 0
-816 -815 0
817 0
818 819 0
-819 -818 0
820 0
821 822 0
-822 -821 0
823 0
824 825 0
-825 -824 0
826 0
827 828 0
-828 -827 0
829 0
830 831 0
-831 -830 0
832 0
833 834 0
-834 -833 0
835 0
836 837 0
-837 -836 0
838 0
839 840 0
-840 -839 0
841 0
842 0
843 844 0
-844 -843 0
845 0
846 847 0
-847 -846 0
848 0
849 850 0
-850 -849 0
851 0
852 853 0
-853 -852 0
854 0
855 856 0
-856 -855 0
857 0
858 859 0
-859 -858 0
860 0
861 862 0
-862 -861 0
863 0
864 865 0
-865 -864 0
866 0
867 868 0
-868 -867 0
869 0
870 871 0
-871 -870 0
872 0
873 874 0
-874 -873 0
875 0
876 0
877 878 0
-878 -877 0
879 0
880 881 0
-881 -880 0
882 0
883 884 0
-884 -883 0
885 0
886 887 0
-887 -886 0
888 0
889 890 0
-890 -889 0
891 0
892 893 0
-893 -892 0
894 0
895 896 0
-896 -895 0
897 0
898 899 0
-899 -898 0
900 0
901 902 0
-902 -901 0
903 0
904 905 0
-905 -904 0
906 0
907 908 0
-908 -907 0
909 0
910 0
911 912 0
-912 -911 0
913 0
914 915 0
-915 -914 0
916 0
917 918 0
-918 -917 0
-918 0
919 920 0
-920 -919 0
-920 0
921 922 0
-922 -921 0
-922 0
923 924 0
-924 -923 0
-924 0
925 926 0
-926 -925 0
-926 0
927 928 0
-928 -927 0
-928 0
929 930 0
-930 -929 0
-930 0
931 932 0
-932 -931 0
-932 0
933 934 0
-934 -933 0
935 0
936 0
937 938 0
-938 -937 0
-938 0
939 940 0
-940 -939 0
-940 0
941 942 0
-942 -941 0
-942 0
943 944 0
-944 -943 0
-944 0
945 946 0
-946 -945 0
-946 0
947 948 0
-948 -947 0
-948 0
949 950 0
-950 -949 0
-950 0
951 952 0
-952 -951 0
-952 0
953 954 0
-954 -953 0
-954 0
955 956 0
-956 -955 0
-956 0
-772 -35 0
-334 -38 0
-282 -41 0
-840 -44 0
-358 -47 0
-908 -50 0
-934 -53 0
-56 -24 0
-63 -28 0
-330 -66 0
-230 -69 0
-874 -72 0
-806 -75 0
-382 -78 0
-81 -60 0
-162 -84 0
-258 -87 0
-430 -90 0
-381 -93 0
-570 -97 0
-454 -100 0
-128 -103 0
-196 -106 0
-406 -109 0
-112 -94 0
-306 -115 0
-800 -121 0
-816 -124 0
-643 -131 0
-666 -134 0
-689 -137 0
-712 -140 0
-478 -143 0
-501 -146 0
-791 -149 0
-333 -161 0
-810 -165 0
-794 -171 0
-828 -174 0
-831 -186 0
-825 -189 0
-257 -195 0
-803 -199 0
-853 -202 0
-856 -205 0
-859 -208 0
-837 -211 0
-862 -220 0
-896 -236 0
-899 -239 0
-477 -57 0
-500 -67 0
-523 -113 0
-768 -523 0
-775 -523 0
-821 -523 0
-573 -546 0
-778 -546 0
-809 -546 0
-812 -546 0
-778 -573 0
-809 -573 0
-812 -573 0
-596 -76 0
-619 -596 0
-734 -596 0
-757 -596 0
-784 -596 0
-818 -596 0
-734 -619 0
-757 -619 0
-784 -619 0
-796 -619 0
-818 -619 0
-642 -45 0
-665 -54 0
-688 -51 0
-711 -64 0
-757 -734 0
-784 -734 0
-796 -734 0
-818 -734 0
-757 -82 0
-775 -768 0
-793 -768 0
-821 -768 0
-771 -127 0
-793 -775 0
-821 -775 0
-778 -104 0
-809 -778 0
-812 -778 0
-781 -85 0
-793 -781 0
-809 -781 0
-833 -781 0
-784 -88 0
-787 -784 0
-796 -784 0
-818 -784 0
-787 -107 0
-796 -787 0
-818 -787 0
-790 -70 0
-809 -793 0
-821 -793 0
-833 -793 0
-818 -796 0
-799 -42 0
-802 -116 0
-805 -59 0
-805 -257 0
-833 -809 0
-812 -36 0
-815 -48 0
-821 -79 0
-824 -110 0
-827 -91 0
-830 -101 0
-836 -144 0
-867 -843 0
-889 -843 0
-846 -153 0
-849 -846 0
-861 -846 0
-861 -849 0
-880 -849 0
-886 -849 0
-852 -132 0
-855 -138 0
-858 -135 0
-886 -861 0
-883 -864 0
-892 -864 0
-867 -184 0
-870 -867 0
-889 -867 0
-870 -166 0
-877 -870 0
-883 -870 0
-889 -870 0
-877 -172 0
-883 -877 0
-889 -877 0
-892 -877 0
-880 -178 0
-886 -880 0
-889 -883 0
-892 -883 0
-892 -156 0
-895 -175 0
-898 -187 0
-904 -901 0
-905 -902 0
-914 -911 0
-914 -221 0
-915 -912 0
-813 -574 -118 0
-620 -597 -152 0
-822 -769 -155 0
-758 -735 -158 0
-834 -782 -168 0
-797 -785 -177 0
-819 -788 -180 0
-779 -547 -183 0
-776 -524 -192 0
-850 -847 -214 0
-893 -865 -217 0
-890 -871 -223 0
-884 -878 -226 0
-887 -881 -233 0
-868 -844 -242 0
-546 -36 0
-546 -116 0
-546 -67 0
-546 -45 0
-573 -104 0
-573 -67 0
-573 -116 0
-573 -45 0
-768 -113 0
-768 -116 0
-768 -67 0
-768 -51 0
-775 -79 0
-775 -67 0
-775 -116 0
-775 -51 0
-843 -119 0
-843 -200 0
-843 -147 0
-843 -132 0
-864 -193 0
-864 -200 0
-864 -147 0
-864 -138 0
-619 -82 0
-619 -107 0
-619 -64 0
-619 -57 0
-619 -91 0
-734 -76 0
-734 -107 0
-734 -64 0
-734 -57 0
-734 -91 0
-793 -113 0
-793 -85 0
-793 -70 0
-793 -51 0
-793 -101 0
-809 -36 0
-809 -85 0
-809 -70 0
-809 -45 0
-809 -101 0
-833 -39 0
-833 -98 0
-833 -70 0
-833 -73 0
-833 -101 0
-849 -159 0
-849 -181 0
-849 -141 0
-849 -144 0
-849 -175 0
-861 -153 0
-861 -178 0
-861 -135 0
-861 -144 0
-861 -175 0
-883 -193 0
-883 -169 0
-883 -150 0
-883 -138 0
-883 -187 0
-889 -119 0
-889 -169 0
-889 -150 0
-889 -132 0
-889 -187 0
-901 -218 0
-901 -227 0
-901 -209 0
-901 -206 0
-901 -240 0
-904 -243 0
-904 -224 0
-904 -209 0
-904 -203 0
-904 -240 0
-911 -215 0
-911 -234 0
-911 -209 0
-911 -212 0
-911 -237 0
-796 -42 0
-796 -48 0
-796 -107 0
-796 -110 0
-796 -54 0
-796 -64 0
-796 -57 0
-818 -48 0
-818 -42 0
-818 -88 0
-818 -110 0
-818 -64 0
-818 -54 0
-818 -57 0
-886 -122 0
-886 -125 0
-886 -181 0
-886 -190 0
-886 -135 0
-886 -141 0
-886 -144 0
c weights 0.5 1.0 0.5 1.0 0.5 1.0 0.5 1.0 0.5 1.0 0.5 1.0 0.5 1.0 0.5 1.0 0.5 1.0 0.5 1.0 0.5 1.0 0.5 1.0 0.5 1.0 0.5 1.0 0.5 1.0 0.5 1.0 0.5 1.0 0.5 1.0 0.5 1.0 0.5 1.0 0.5 1.0 0.5 1.0 1.0 1.0 1.0 1.0 0.5 1.0 1.0 1.0 1.0 1.0 1.0 1.0 0.5 1.0 1.0 1.0 1.0 1.0 1.0 1.0 1.0 1.0 1.0 1.0 1.0 1.0 1.0 1.0 0.5 1.0 1.0 1.0 1.0 1.0 0.5 1.0 1.0 1.0 1.0 1.0 0.5 1.0 1.0 1.0 1.0 1.0 0.5 1.0 1.0 1.0 1.0 1.0 0.5 1.0 1.0 1.0 1.0 1.0 0.5 1.0 1.0 1.0 1.0 1.0 0.5 1.0 1.0 1.0 1.0 1.0 0.5 1.0 1.0 1.0 1.0 1.0 0.5 1.0 1.0 1.0 1.0 1.0 1.0 1.0 0.5 1.0 1.0 1.0 1.0 1.0 0.5 1.0 1.0 1.0 1.0 1.0 0.5 1.0 1.0 1.0 1.0 1.0 0.5 1.0 1.0 1.0 1.0 1.0 0.5 1.0 1.0 1.0 1.0 1.0 0.5 1.0 1.0 1.0 1.0 1.0 0.5 1.0 1.0 1.0 1.0 1.0 0.5 1.0 1.0 1.0 1.0 1.0 0.5 1.0 1.0 1.0 1.0 1.0 0.5 1.0 1.0 1.0 1.0 1.0 0.5 1.0 1.0 1.0 1.0 1.0 1.0 1.0 0.5 1.0 1.0 1.0 1.0 1.0 0.5 1.0 1.0 1.0 1.0 1.0 0.5 1.0 1.0 1.0 1.0 1.0 0.5 1.0 1.0 1.0 1.0 1.0 0.5 1.0 1.0 1.0 1.0 1.0 0.5 1.0 1.0 1.0 1.0 1.0 0.5 1.0 1.0 1.0 1.0 1.0 0.5 1.0 1.0 1.0 1.0 1.0 0.5 1.0 1.0 1.0 1.0 1.0 0.5 1.0 1.0 1.0 1.0 1.0 0.5 1.0 1.0 1.0 1.0 1.0 1.0 1.0 0.5 1.0 1.0 1.0 1.0 1.0 0.5 1.0 1.0 1.0 1.0 1.0 0.5 1.0 1.0 1.0 1.0 1.0 0.5 1.0 1.0 1.0 1.0 1.0 0.5 1.0 1.0 1.0 1.0 1.0 0.5 1.0 1.0 1.0 1.0 1.0 0.5 1.0 1.0 1.0 1.0 1.0 0.5 1.0 1.0 1.0 1.0 1.0 0.5 1.0 1.0 1.0 1.0 1.0 0.5 1.0 1.0 1.0 1.0 1.0 0.5 1.0 1.0 1.0 1.0 1.0 1.0 1.0 0.5 1.0 1.0 1.0 1.0 1.0 0.5 1.0 1.0 1.0 1.0 1.0 0.5 1.0 1.0 1.0 1.0 1.0 0.5 1.0 1.0 1.0 1.0 1.0 0.5 1.0 1.0 1.0 1.0 1.0 0.5 1.0 1.0 1.0 1.0 1.0 0.5 1.0 1.0 1.0 1.0 1.0 0.5 1.0 1.0 1.0 1.0 1.0 0.5 1.0 1.0 1.0 1.0 1.0 0.5 1.0 1.0 1.0 1.0 1.0 0.5 1.0 1.0 1.0 1.0 1.0 1.0 1.0 0.5 1.0 1.0 1.0 1.0 1.0 0.5 1.0 1.0 1.0 1.0 1.0 0.5 1.0 1.0 1.0 1.0 1.0 0.5 1.0 1.0 1.0 1.0 1.0 0.5 1.0 1.0 1.0 1.0 1.0 0.5 1.0 1.0 1.0 1.0 1.0 0.5 1.0 1.0 1.0 1.0 1.0 0.5 1.0 1.0 1.0 1.0 1.0 0.5 1.0 1.0 1.0 1.0 1.0 0.5 1.0 1.0 1.0 1.0 1.0 0.5 1.0 1.0 1.0 1.0 1.0 1.0 1.0 0.5 1.0 1.0 1.0 1.0 1.0 0.5 1.0 1.0 1.0 1.0 1.0 0.5 1.0 1.0 1.0 1.0 1.0 0.5 1.0 1.0 1.0 1.0 1.0 1.0 1.0 1.0 1.0 1.0 1.0 1.0 1.0 1.0 1.0 1.0 1.0 1.0 1.0 1.0 1.0 1.0 1.0 1.0 1.0 1.0 1.0 1.0 1.0 0.5 1.0 1.0 1.0 1.0 1.0 1.0 1.0 1.0 1.0 1.0 1.0 1.0 1.0 1.0 1.0 1.0 1.0 1.0 1.0 1.0 1.0 1.0 1.0 1.0 1.0 1.0 1.0 1.0 1.0 1.0 1.0 1.0 1.0 1.0 1.0 1.0 1.0 1.0 1.0 1.0 1.0 1.0 1.0 1.0 1.0 1.0 1.0 0.5 1.0 1.0 1.0 1.0 1.0 1.0 1.0 1.0 1.0 1.0 1.0 1.0 1.0 1.0 1.0 1.0 1.0 1.0 1.0 1.0 1.0 1.0 1.0 1.0 1.0 1.0 1.0 1.0 1.0 1.0 1.0 1.0 1.0 1.0 1.0 1.0 1.0 1.0 1.0 1.0 1.0 1.0 1.0 1.0 1.0 1.0 1.0 0.5 1.0 1.0 1.0 1.0 1.0 1.0 1.0 1.0 1.0 1.0 1.0 1.0 1.0 1.0 1.0 1.0 1.0 1.0 1.0 1.0 1.0 1.0 1.0 1.0 1.0 1.0 1.0 1.0 1.0 1.0 1.0 1.0 1.0 1.0 1.0 1.0 1.0 1.0 1.0 1.0 1.0 1.0 1.0 1.0 1.0 1.0 1.0 0.5 1.0 1.0 1.0 1.0 1.0 1.0 1.0 0.5 1.0 1.0 1.0 1.0 1.0 1.0 1.0 1.0 1.0 1.0 1.0 1.0 1.0 1.0 1.0 1.0 1.0 1.0 1.0 1.0 1.0 1.0 1.0 1.0 1.0 1.0 1.0 1.0 1.0 1.0 1.0 1.0 1.0 1.0 1.0 1.0 1.0 1.0 1.0 1.0 1.0 1.0 1.0 1.0 1.0 1.0 1.0 0.5 1.0 1.0 1.0 1.0 1.0 1.0 1.0 1.0 1.0 1.0 1.0 1.0 1.0 1.0 1.0 1.0 1.0 1.0 1.0 1.0 1.0 1.0 1.0 1.0 1.0 1.0 1.0 1.0 1.0 1.0 1.0 1.0 1.0 1.0 1.0 1.0 1.0 1.0 1.0 1.0 1.0 1.0 1.0 1.0 1.0 1.0 1.0 0.5 1.0 1.0 1.0 1.0 1.0 1.0 1.0 1.0 1.0 1.0 1.0 1.0 1.0 1.0 1.0 1.0 1.0 1.0 1.0 1.0 1.0 1.0 1.0 1.0 1.0 1.0 1.0 1.0 1.0 1.0 1.0 1.0 1.0 1.0 1.0 1.0 1.0 1.0 1.0 1.0 1.0 1.0 1.0 1.0 1.0 1.0 1.0 0.5 1.0 1.0 1.0 1.0 1.0 1.0 1.0 1.0 1.0 1.0 1.0 1.0 1.0 1.0 1.0 1.0 1.0 1.0 1.0 1.0 1.0 1.0 1.0 1.0 1.0 1.0 1.0 1.0 1.0 1.0 1.0 1.0 1.0 1.0 1.0 1.0 1.0 1.0 1.0 1.0 1.0 1.0 1.0 1.0 1.0 1.0 1.0 0.5 1.0 1.0 1.0 1.0 1.0 1.0 1.0 1.0 1.0 1.0 1.0 1.0 1.0 1.0 1.0 1.0 1.0 1.0 1.0 1.0 1.0 1.0 1.0 1.0 1.0 1.0 1.0 1.0 1.0 1.0 1.0 1.0 1.0 1.0 1.0 1.0 1.0 1.0 1.0 1.0 1.0 1.0 1.0 1.0 1.0 1.0 1.0 0.5 1.0 1.0 1.0 1.0 1.0 1.0 1.0 1.0 1.0 1.0 1.0 1.0 1.0 1.0 1.0 1.0 1.0 1.0 1.0 1.0 1.0 1.0 1.0 1.0 1.0 1.0 1.0 1.0 1.0 1.0 1.0 1.0 1.0 1.0 1.0 1.0 1.0 1.0 1.0 1.0 1.0 1.0 1.0 1.0 1.0 1.0 1.0 0.5 1.0 1.0 1.0 1.0 1.0 1.0 1.0 1.0 1.0 1.0 1.0 1.0 1.0 1.0 1.0 1.0 1.0 1.0 1.0 1.0 1.0 1.0 1.0 1.0 1.0 1.0 1.0 1.0 1.0 1.0 1.0 1.0 1.0 1.0 1.0 1.0 1.0 1.0 1.0 1.0 1.0 1.0 1.0 1.0 1.0 0.5 1.0 1.0 1.0 1.0 1.0 1.0 1.0 1.0 1.0 1.0 1.0 1.0 1.0 1.0 1.0 1.0 1.0 1.0 1.0 1.0 1.0 1.0 1.0 1.0 1.0 1.0 1.0 1.0 1.0 1.0 1.0 1.0 1.0 1.0 1.0 1.0 1.0 1.0 1.0 1.0 1.0 1.0 1.0 1.0 1.0 0.5 1.0 1.0 1.0 1.0 1.0 1.0 1.0 1.0 1.0 1.0 1.0 1.0 1.0 1.0 1.0 1.0 1.0 1.0 1.0 1.0 1.0 1.0 1.0 1.0 1.0 1.0 1.0 1.0 1.0 1.0 1.0 1.0 1.0 1.0 1.0 1.0 1.0 1.0 1.0 1.0 1.0 1.0 1.0 1.0 1.0 0.5 1.0 1.0 1.0 1.0 1.0 1.0 1.0 1.0 1.0 1.0 1.0 1.0 1.0 1.0 1.0 1.0 1.0 1.0 1.0 1.0 1.0 1.0 1.0 1.0 1.0 1.0 1.0 1.0 1.0 1.0 1.0 1.0 1.0 1.0 1.0 1.0 1.0 1.0 1.0 1.0 1.0 1.0 1.0 1.0 1.0 0.5 1.0 1.0 1.0 1.0 1.0 1.0 1.0 0.5 1.0 1.0 1.0 1.0 1.0 1.0 1.0 1.0 1.0 1.0 1.0 1.0 1.0 1.0 1.0 1.0 1.0 1.0 1.0 1.0 1.0 1.0 1.0 1.0 1.0 1.0 1.0 1.0 1.0 1.0 1.0 1.0 1.0 1.0 1.0 1.0 1.0 1.0 1.0 1.0 1.0 1.0 1.0 1.0 1.0 0.5 1.0 1.0 1.0 1.0 1.0 1.0 1.0 1.0 1.0 1.0 1.0 1.0 1.0 1.0 1.0 1.0 1.0 1.0 1.0 1.0 1.0 1.0 1.0 1.0 1.0 1.0 1.0 1.0 1.0 1.0 1.0 1.0 1.0 1.0 1.0 1.0 1.0 1.0 1.0 1.0 1.0 1.0 1.0 1.0 1.0 0.5 1.0 1.0 1.0 1.0 1.0 1.0 1.0 1.0 1.0 1.0 1.0 1.0 1.0 1.0 1.0 1.0 1.0 1.0 1.0 1.0 1.0 1.0 1.0 1.0 1.0 1.0 1.0 1.0 1.0 1.0 1.0 1.0 1.0 1.0 1.0 1.0 1.0 1.0 1.0 1.0 1.0 1.0 1.0 1.0 1.0 0.5 1.0 1.0 1.0 1.0 1.0 1.0 1.0 1.0 1.0 1.0 1.0 1.0 1.0 1.0 1.0 1.0 1.0 1.0 1.0 1.0 1.0 1.0 1.0 1.0 1.0 1.0 1.0 1.0 1.0 1.0 1.0 1.0 1.0 1.0 1.0 1.0 1.0 1.0 1.0 1.0 1.0 1.0 1.0 1.0 1.0 0.5 1.0 1.0 1.0 1.0 1.0 1.0 1.0 1.0 1.0 1.0 1.0 1.0 1.0 1.0 1.0 1.0 1.0 1.0 1.0 1.0 1.0 1.0 1.0 1.0 1.0 1.0 1.0 1.0 1.0 1.0 1.0 1.0 1.0 1.0 1.0 1.0 1.0 1.0 1.0 1.0 1.0 1.0 1.0 1.0 1.0 0.5 1.0 1.0 1.0 1.0 1.0 1.0 1.0 1.0 1.0 1.0 1.0 1.0 1.0 1.0 1.0 1.0 1.0 1.0 1.0 1.0 1.0 1.0 1.0 1.0 1.0 1.0 1.0 1.0 1.0 1.0 1.0 1.0 1.0 1.0 1.0 1.0 1.0 1.0 1.0 1.0 1.0 1.0 1.0 1.0 1.0 0.5 1.0 1.0 1.0 1.0 1.0 1.0 1.0 1.0 1.0 1.0 1.0 1.0 1.0 1.0 1.0 1.0 1.0 1.0 1.0 1.0 1.0 1.0 1.0 1.0 1.0 1.0 1.0 1.0 1.0 1.0 1.0 1.0 1.0 1.0 1.0 1.0 1.0 1.0 1.0 1.0 1.0 1.0 1.0 1.0 1.0 0.5 1.0 1.0 1.0 1.0 1.0 1.0 1.0 1.0 1.0 1.0 1.0 1.0 1.0 1.0 1.0 1.0 1.0 1.0 1.0 1.0 1.0 1.0 1.0 1.0 1.0 1.0 1.0 1.0 1.0 1.0 1.0 1.0 1.0 1.0 1.0 1.0 1.0 1.0 1.0 1.0 1.0 1.0 1.0 1.0 1.0 0.5 1.0 1.0 1.0 1.0 1.0 1.0 1.0 1.0 1.0 1.0 1.0 1.0 1.0 1.0 1.0 1.0 1.0 1.0 1.0 1.0 1.0 0.5 1.0 1.0 1.0 1.0 1.0 0.5 1.0 1.0 1.0 1.0 1.0 1.0 1.0 0.5 1.0 1.0 1.0 1.0 1.0 0.5 1.0 1.0 1.0 1.0 1.0 0.5 1.0 1.0 1.0 1.0 1.0 0.5 1.0 1.0 1.0 1.0 1.0 0.5 1.0 1.0 1.0 1.0 1.0 0.5 1.0 1.0 1.0 1.0 1.0 0.5 1.0 1.0 1.0 1.0 1.0 0.5 1.0 1.0 1.0 1.0 1.0 0.5 1.0 1.0 1.0 1.0 1.0 0.5 1.0 1.0 1.0 1.0 1.0 0.5 1.0 1.0 1.0 1.0 1.0 1.0 1.0 0.5 1.0 1.0 1.0 1.0 1.0 0.5 1.0 1.0 1.0 1.0 1.0 0.5 1.0 1.0 1.0 1.0 1.0 0.5 1.0 1.0 1.0 1.0 1.0 0.5 1.0 1.0 1.0 1.0 1.0 0.5 1.0 1.0 1.0 1.0 1.0 0.5 1.0 1.0 1.0 1.0 1.0 0.5 1.0 1.0 1.0 1.0 1.0 0.5 1.0 1.0 1.0 1.0 1.0 0.5 1.0 1.0 1.0 1.0 1.0 0.5 1.0 1.0 1.0 1.0 1.0 1.0 1.0 0.5 1.0 1.0 1.0 1.0 1.0 0.5 1.0 1.0 1.0 1.0 1.0 0.5 1.0 1.0 1.0 1.0 1.0 0.5 1.0 1.0 1.0 1.0 1.0 0.5 1.0 1.0 1.0 1.0 1.0 0.5 1.0 1.0 1.0 1.0 1.0 0.5 1.0 1.0 1.0 1.0 1.0 0.5 1.0 1.0 1.0 1.0 1.0 0.5 1.0 1.0 1.0 1.0 1.0 0.5 1.0 1.0 1.0 1.0 1.0 0.5 1.0 1.0 1.0 1.0 1.0 1.0 1.0 0.5 1.0 1.0 1.0 1.0 1.0 0.5 1.0 1.0 1.0 1.0 1.0 0.5 1.0 1.0 1.0 1.0 1.0 0.5 1.0 1.0 1.0 1.0 1.0 0.5 1.0 1.0 1.0 1.0 1.0 0.5 1.0 1.0 1.0 1.0 1.0 0.5 1.0 1.0 1.0 1.0 1.0 0.5 1.0 1.0 1.0 1.0 1.0 0.5 1.0 1.0 1.0 1.0 1.0 0.5 1.0 1.0 1.0 1.0 1.0 0.5 1.0 1.0 1.0 1.0 1.0 1.0 1.0 0.5 1.0 1.0 1.0 1.0 1.0 0.5 1.0 1.0 1.0 1.0 1.0 1.0 1.0 1.0 1.0 1.0 1.0 1.0 1.0 1.0 1.0 1.0 1.0 1.0 1.0 1.0 1.0 1.0 1.0 1.0 1.0 1.0 1.0 1.0 1.0 1.0 1.0 1.0 1.0 1.0 1.0 1.0 1.0 0.5 1.0 1.0 1.0 1.0 1.0 1.0 1.0 1.0 1.0 1.0 1.0 1.0 1.0 1.0 1.0 1.0 1.0 1.0 1.0 1.0 1.0 1.0 1.0 1.0 1.0 1.0 1.0 1.0 1.0 1.0 1.0 1.0 1.0 1.0 1.0 1.0 1.0 1.0 1.0 1.0 1.0 1.0 1.0
